clingo version 4.5.4
Reading from rules-mk3.lp ...
Solving...
Answer: 1
entity(bomber) entity(basket) entity(bomb) singular(bomber)
singular(basket) many(bomb) initialize(set_sprite(bomb,bomb))
resource(points) resource(bombsPerLevel) resource(bombsLeft)
resource(lives) resource(bomber,duration) resource(bomber,direction)
resource(bomber,timeTilNextBomb) resource(paused)
timerLogic(bomber,change_direction,duration,loop)
precondition(eq(paused,false),change_direction(bomber))
precondition(timerElapsed(bomber,change_direction),change_direction(bomber))
result(change_direction(bomber),set(direction,random_choice(east,west)))
timerLogic(bomber,throw_bomb,timeTilNextBomb,loop)
precondition(eq(paused,false),throw_bomb(bomber))
precondition(timerElapsed(bomber,throw_bomb),throw_bomb(bomber))
result(throw_bomb(bomber),add(bomb))
result(throw_bomb(bomber),decrease(bombsLeft,low))
precondition(eq(paused,false),tick) result(tick,moves(bomber,direction))
result(tick,moves(bomb,south)) precondition(overlaps(bomb,basket),defuse)
result(defuse,delete(bomb)) result(defuse,increase(score,low))
precondition(control_event(right_arrow,held),move_right)
result(move_right,moves(basket,east,low))
precondition(control_event(left_arrow,held),move_left)
result(move_left,moves(basket,west,low))
precondition(overlaps(bomb,screen_bottom),lose_life)
result(lose_life,decrease(lives,low)) result(lose_life,set(paused,true))
precondition(le(lives,0),lose) result(lose,mode_change(game_loss))
better_color(green,red) opposed_color(red,green) opposed_color(blue,yellow)
opposed_color(white,black) connotation(red,warm) connotation(orange,warm)
connotation(yellow,warm) connotation(green,cool) connotation(blue,cool)
connotation(purple,cool) connotation(green,natural)
connotation(brown,natural) connotation(gray,manmade)
connotation(black,manmade) connotation(white,manmade) connotation(red,stop)
connotation(green,go) connotation(black,evil) connotation(white,good)
connotation(red,danger) connotation(orange,danger)
connotation(yellow,danger) connotation(black,danger) better_than(good,evil)
better_than(natural,manmade) goodResult(mode_change(game_win))
badResult(mode_change(game_end)) badResult(mode_change(game_loss))
unrestrictedCondition(tick) color(red) color(orange) color(yellow)
color(green) color(blue) color(purple) color(pink) color(brown)
luminance(white) luminance(gray) luminance(black) bright(white) bright(red)
bright(yellow) bright(green) bright(pink) dark(gray) dark(black) dark(blue)
dark(purple) dark(brown) entity(screen_top) entity(screen_left)
entity(screen_bottom) entity(screen_right) timingBasedPhysics(spring)
timingBasedPhysics(pendulum) timingBasedPhysics(chase)
timingBasedPhysics(random) timingBasedPhysics(random_chase)
timingBasedPhysics(flee) timingBasedPhysics(random_flee) threshold(mid)
threshold(high) threshold(low) better_color(red,gray)
better_color(orange,gray) better_color(yellow,gray)
better_color(green,gray) better_color(blue,gray) better_color(purple,gray)
better_color(pink,gray) better_color(brown,gray) better_color(red,black)
better_color(orange,black) better_color(yellow,black)
better_color(green,black) better_color(blue,black)
better_color(purple,black) better_color(pink,black)
better_color(brown,black) opposed_color(green,red)
opposed_color(yellow,blue) opposed_color(black,white) threshold(points)
threshold(bombsPerLevel) threshold(bombsLeft) threshold(lives)
threshold(paused) threshold(duration) threshold(direction)
threshold(timeTilNextBomb) lowThreshold(lt(points,mid),points,mid)
lowThreshold(lt(points,high),points,high)
lowThreshold(lt(points,low),points,low)
lowThreshold(lt(points,points),points,points)
lowThreshold(lt(points,bombsPerLevel),points,bombsPerLevel)
lowThreshold(lt(points,bombsLeft),points,bombsLeft)
lowThreshold(lt(points,lives),points,lives)
lowThreshold(lt(points,paused),points,paused)
lowThreshold(lt(points,duration),points,duration)
lowThreshold(lt(points,direction),points,direction)
lowThreshold(lt(points,timeTilNextBomb),points,timeTilNextBomb)
lowThreshold(lt(bombsPerLevel,mid),bombsPerLevel,mid)
lowThreshold(lt(bombsPerLevel,high),bombsPerLevel,high)
lowThreshold(lt(bombsPerLevel,low),bombsPerLevel,low)
lowThreshold(lt(bombsPerLevel,points),bombsPerLevel,points)
lowThreshold(lt(bombsPerLevel,bombsPerLevel),bombsPerLevel,bombsPerLevel)
lowThreshold(lt(bombsPerLevel,bombsLeft),bombsPerLevel,bombsLeft)
lowThreshold(lt(bombsPerLevel,lives),bombsPerLevel,lives)
lowThreshold(lt(bombsPerLevel,paused),bombsPerLevel,paused)
lowThreshold(lt(bombsPerLevel,duration),bombsPerLevel,duration)
lowThreshold(lt(bombsPerLevel,direction),bombsPerLevel,direction)
lowThreshold(lt(bombsPerLevel,timeTilNextBomb),bombsPerLevel,timeTilNextBomb)
lowThreshold(lt(bombsLeft,mid),bombsLeft,mid)
lowThreshold(lt(bombsLeft,high),bombsLeft,high)
lowThreshold(lt(bombsLeft,low),bombsLeft,low)
lowThreshold(lt(bombsLeft,points),bombsLeft,points)
lowThreshold(lt(bombsLeft,bombsPerLevel),bombsLeft,bombsPerLevel)
lowThreshold(lt(bombsLeft,bombsLeft),bombsLeft,bombsLeft)
lowThreshold(lt(bombsLeft,lives),bombsLeft,lives)
lowThreshold(lt(bombsLeft,paused),bombsLeft,paused)
lowThreshold(lt(bombsLeft,duration),bombsLeft,duration)
lowThreshold(lt(bombsLeft,direction),bombsLeft,direction)
lowThreshold(lt(bombsLeft,timeTilNextBomb),bombsLeft,timeTilNextBomb)
lowThreshold(lt(lives,mid),lives,mid)
lowThreshold(lt(lives,high),lives,high)
lowThreshold(lt(lives,low),lives,low)
lowThreshold(lt(lives,points),lives,points)
lowThreshold(lt(lives,bombsPerLevel),lives,bombsPerLevel)
lowThreshold(lt(lives,bombsLeft),lives,bombsLeft)
lowThreshold(lt(lives,lives),lives,lives)
lowThreshold(lt(lives,paused),lives,paused)
lowThreshold(lt(lives,duration),lives,duration)
lowThreshold(lt(lives,direction),lives,direction)
lowThreshold(lt(lives,timeTilNextBomb),lives,timeTilNextBomb)
lowThreshold(lt(paused,mid),paused,mid)
lowThreshold(lt(paused,high),paused,high)
lowThreshold(lt(paused,low),paused,low)
lowThreshold(lt(paused,points),paused,points)
lowThreshold(lt(paused,bombsPerLevel),paused,bombsPerLevel)
lowThreshold(lt(paused,bombsLeft),paused,bombsLeft)
lowThreshold(lt(paused,lives),paused,lives)
lowThreshold(lt(paused,paused),paused,paused)
lowThreshold(lt(paused,duration),paused,duration)
lowThreshold(lt(paused,direction),paused,direction)
lowThreshold(lt(paused,timeTilNextBomb),paused,timeTilNextBomb)
lowThreshold(le(points,mid),points,mid)
lowThreshold(le(points,high),points,high)
lowThreshold(le(points,low),points,low)
lowThreshold(le(points,points),points,points)
lowThreshold(le(points,bombsPerLevel),points,bombsPerLevel)
lowThreshold(le(points,bombsLeft),points,bombsLeft)
lowThreshold(le(points,lives),points,lives)
lowThreshold(le(points,paused),points,paused)
lowThreshold(le(points,duration),points,duration)
lowThreshold(le(points,direction),points,direction)
lowThreshold(le(points,timeTilNextBomb),points,timeTilNextBomb)
lowThreshold(le(bombsPerLevel,mid),bombsPerLevel,mid)
lowThreshold(le(bombsPerLevel,high),bombsPerLevel,high)
lowThreshold(le(bombsPerLevel,low),bombsPerLevel,low)
lowThreshold(le(bombsPerLevel,points),bombsPerLevel,points)
lowThreshold(le(bombsPerLevel,bombsPerLevel),bombsPerLevel,bombsPerLevel)
lowThreshold(le(bombsPerLevel,bombsLeft),bombsPerLevel,bombsLeft)
lowThreshold(le(bombsPerLevel,lives),bombsPerLevel,lives)
lowThreshold(le(bombsPerLevel,paused),bombsPerLevel,paused)
lowThreshold(le(bombsPerLevel,duration),bombsPerLevel,duration)
lowThreshold(le(bombsPerLevel,direction),bombsPerLevel,direction)
lowThreshold(le(bombsPerLevel,timeTilNextBomb),bombsPerLevel,timeTilNextBomb)
lowThreshold(le(bombsLeft,mid),bombsLeft,mid)
lowThreshold(le(bombsLeft,high),bombsLeft,high)
lowThreshold(le(bombsLeft,low),bombsLeft,low)
lowThreshold(le(bombsLeft,points),bombsLeft,points)
lowThreshold(le(bombsLeft,bombsPerLevel),bombsLeft,bombsPerLevel)
lowThreshold(le(bombsLeft,bombsLeft),bombsLeft,bombsLeft)
lowThreshold(le(bombsLeft,lives),bombsLeft,lives)
lowThreshold(le(bombsLeft,paused),bombsLeft,paused)
lowThreshold(le(bombsLeft,duration),bombsLeft,duration)
lowThreshold(le(bombsLeft,direction),bombsLeft,direction)
lowThreshold(le(bombsLeft,timeTilNextBomb),bombsLeft,timeTilNextBomb)
lowThreshold(le(lives,mid),lives,mid)
lowThreshold(le(lives,high),lives,high)
lowThreshold(le(lives,low),lives,low)
lowThreshold(le(lives,points),lives,points)
lowThreshold(le(lives,bombsPerLevel),lives,bombsPerLevel)
lowThreshold(le(lives,bombsLeft),lives,bombsLeft)
lowThreshold(le(lives,lives),lives,lives)
lowThreshold(le(lives,paused),lives,paused)
lowThreshold(le(lives,duration),lives,duration)
lowThreshold(le(lives,direction),lives,direction)
lowThreshold(le(lives,timeTilNextBomb),lives,timeTilNextBomb)
lowThreshold(le(paused,mid),paused,mid)
lowThreshold(le(paused,high),paused,high)
lowThreshold(le(paused,low),paused,low)
lowThreshold(le(paused,points),paused,points)
lowThreshold(le(paused,bombsPerLevel),paused,bombsPerLevel)
lowThreshold(le(paused,bombsLeft),paused,bombsLeft)
lowThreshold(le(paused,lives),paused,lives)
lowThreshold(le(paused,paused),paused,paused)
lowThreshold(le(paused,duration),paused,duration)
lowThreshold(le(paused,direction),paused,direction)
lowThreshold(le(paused,timeTilNextBomb),paused,timeTilNextBomb)
highThreshold(gt(points,mid),points,mid)
highThreshold(gt(points,high),points,high)
highThreshold(gt(points,low),points,low)
highThreshold(gt(points,points),points,points)
highThreshold(gt(points,bombsPerLevel),points,bombsPerLevel)
highThreshold(gt(points,bombsLeft),points,bombsLeft)
highThreshold(gt(points,lives),points,lives)
highThreshold(gt(points,paused),points,paused)
highThreshold(gt(points,duration),points,duration)
highThreshold(gt(points,direction),points,direction)
highThreshold(gt(points,timeTilNextBomb),points,timeTilNextBomb)
highThreshold(gt(bombsPerLevel,mid),bombsPerLevel,mid)
highThreshold(gt(bombsPerLevel,high),bombsPerLevel,high)
highThreshold(gt(bombsPerLevel,low),bombsPerLevel,low)
highThreshold(gt(bombsPerLevel,points),bombsPerLevel,points)
highThreshold(gt(bombsPerLevel,bombsPerLevel),bombsPerLevel,bombsPerLevel)
highThreshold(gt(bombsPerLevel,bombsLeft),bombsPerLevel,bombsLeft)
highThreshold(gt(bombsPerLevel,lives),bombsPerLevel,lives)
highThreshold(gt(bombsPerLevel,paused),bombsPerLevel,paused)
highThreshold(gt(bombsPerLevel,duration),bombsPerLevel,duration)
highThreshold(gt(bombsPerLevel,direction),bombsPerLevel,direction)
highThreshold(gt(bombsPerLevel,timeTilNextBomb),bombsPerLevel,timeTilNextBomb)
highThreshold(gt(bombsLeft,mid),bombsLeft,mid)
highThreshold(gt(bombsLeft,high),bombsLeft,high)
highThreshold(gt(bombsLeft,low),bombsLeft,low)
highThreshold(gt(bombsLeft,points),bombsLeft,points)
highThreshold(gt(bombsLeft,bombsPerLevel),bombsLeft,bombsPerLevel)
highThreshold(gt(bombsLeft,bombsLeft),bombsLeft,bombsLeft)
highThreshold(gt(bombsLeft,lives),bombsLeft,lives)
highThreshold(gt(bombsLeft,paused),bombsLeft,paused)
highThreshold(gt(bombsLeft,duration),bombsLeft,duration)
highThreshold(gt(bombsLeft,direction),bombsLeft,direction)
highThreshold(gt(bombsLeft,timeTilNextBomb),bombsLeft,timeTilNextBomb)
highThreshold(gt(lives,mid),lives,mid)
highThreshold(gt(lives,high),lives,high)
highThreshold(gt(lives,low),lives,low)
highThreshold(gt(lives,points),lives,points)
highThreshold(gt(lives,bombsPerLevel),lives,bombsPerLevel)
highThreshold(gt(lives,bombsLeft),lives,bombsLeft)
highThreshold(gt(lives,lives),lives,lives)
highThreshold(gt(lives,paused),lives,paused)
highThreshold(gt(lives,duration),lives,duration)
highThreshold(gt(lives,direction),lives,direction)
highThreshold(gt(lives,timeTilNextBomb),lives,timeTilNextBomb)
highThreshold(gt(paused,mid),paused,mid)
highThreshold(gt(paused,high),paused,high)
highThreshold(gt(paused,low),paused,low)
highThreshold(gt(paused,points),paused,points)
highThreshold(gt(paused,bombsPerLevel),paused,bombsPerLevel)
highThreshold(gt(paused,bombsLeft),paused,bombsLeft)
highThreshold(gt(paused,lives),paused,lives)
highThreshold(gt(paused,paused),paused,paused)
highThreshold(gt(paused,duration),paused,duration)
highThreshold(gt(paused,direction),paused,direction)
highThreshold(gt(paused,timeTilNextBomb),paused,timeTilNextBomb)
highThreshold(ge(points,mid),points,mid)
highThreshold(ge(points,high),points,high)
highThreshold(ge(points,low),points,low)
highThreshold(ge(points,points),points,points)
highThreshold(ge(points,bombsPerLevel),points,bombsPerLevel)
highThreshold(ge(points,bombsLeft),points,bombsLeft)
highThreshold(ge(points,lives),points,lives)
highThreshold(ge(points,paused),points,paused)
highThreshold(ge(points,duration),points,duration)
highThreshold(ge(points,direction),points,direction)
highThreshold(ge(points,timeTilNextBomb),points,timeTilNextBomb)
highThreshold(ge(bombsPerLevel,mid),bombsPerLevel,mid)
highThreshold(ge(bombsPerLevel,high),bombsPerLevel,high)
highThreshold(ge(bombsPerLevel,low),bombsPerLevel,low)
highThreshold(ge(bombsPerLevel,points),bombsPerLevel,points)
highThreshold(ge(bombsPerLevel,bombsPerLevel),bombsPerLevel,bombsPerLevel)
highThreshold(ge(bombsPerLevel,bombsLeft),bombsPerLevel,bombsLeft)
highThreshold(ge(bombsPerLevel,lives),bombsPerLevel,lives)
highThreshold(ge(bombsPerLevel,paused),bombsPerLevel,paused)
highThreshold(ge(bombsPerLevel,duration),bombsPerLevel,duration)
highThreshold(ge(bombsPerLevel,direction),bombsPerLevel,direction)
highThreshold(ge(bombsPerLevel,timeTilNextBomb),bombsPerLevel,timeTilNextBomb)
highThreshold(ge(bombsLeft,mid),bombsLeft,mid)
highThreshold(ge(bombsLeft,high),bombsLeft,high)
highThreshold(ge(bombsLeft,low),bombsLeft,low)
highThreshold(ge(bombsLeft,points),bombsLeft,points)
highThreshold(ge(bombsLeft,bombsPerLevel),bombsLeft,bombsPerLevel)
highThreshold(ge(bombsLeft,bombsLeft),bombsLeft,bombsLeft)
highThreshold(ge(bombsLeft,lives),bombsLeft,lives)
highThreshold(ge(bombsLeft,paused),bombsLeft,paused)
highThreshold(ge(bombsLeft,duration),bombsLeft,duration)
highThreshold(ge(bombsLeft,direction),bombsLeft,direction)
highThreshold(ge(bombsLeft,timeTilNextBomb),bombsLeft,timeTilNextBomb)
highThreshold(ge(lives,mid),lives,mid)
highThreshold(ge(lives,high),lives,high)
highThreshold(ge(lives,low),lives,low)
highThreshold(ge(lives,points),lives,points)
highThreshold(ge(lives,bombsPerLevel),lives,bombsPerLevel)
highThreshold(ge(lives,bombsLeft),lives,bombsLeft)
highThreshold(ge(lives,lives),lives,lives)
highThreshold(ge(lives,paused),lives,paused)
highThreshold(ge(lives,duration),lives,duration)
highThreshold(ge(lives,direction),lives,direction)
highThreshold(ge(lives,timeTilNextBomb),lives,timeTilNextBomb)
highThreshold(ge(paused,mid),paused,mid)
highThreshold(ge(paused,high),paused,high)
highThreshold(ge(paused,low),paused,low)
highThreshold(ge(paused,points),paused,points)
highThreshold(ge(paused,bombsPerLevel),paused,bombsPerLevel)
highThreshold(ge(paused,bombsLeft),paused,bombsLeft)
highThreshold(ge(paused,lives),paused,lives)
highThreshold(ge(paused,paused),paused,paused)
highThreshold(ge(paused,duration),paused,duration)
highThreshold(ge(paused,direction),paused,direction)
highThreshold(ge(paused,timeTilNextBomb),paused,timeTilNextBomb)
humanAffected(move_right) humanAffected(move_left) playerAgency(basket)
humanControlled(basket) condition(eq(paused,false))
condition(timerElapsed(bomber,change_direction))
condition(timerElapsed(bomber,throw_bomb)) condition(overlaps(bomb,basket))
condition(control_event(right_arrow,held))
condition(control_event(left_arrow,held))
condition(overlaps(bomb,screen_bottom)) condition(le(lives,0))
result_enables_condition(increase(points),gt(points,mid))
result_enables_condition(increase(points),gt(points,high))
result_enables_condition(increase(points),gt(points,low))
result_enables_condition(increase(points),gt(points,points))
result_enables_condition(increase(points),gt(points,bombsPerLevel))
result_enables_condition(increase(points),gt(points,bombsLeft))
result_enables_condition(increase(points),gt(points,lives))
result_enables_condition(increase(points),gt(points,paused))
result_enables_condition(increase(points),gt(points,duration))
result_enables_condition(increase(points),gt(points,direction))
result_enables_condition(increase(points),gt(points,timeTilNextBomb))
result_enables_condition(increase(bombsPerLevel),gt(bombsPerLevel,mid))
result_enables_condition(increase(bombsPerLevel),gt(bombsPerLevel,high))
result_enables_condition(increase(bombsPerLevel),gt(bombsPerLevel,low))
result_enables_condition(increase(bombsPerLevel),gt(bombsPerLevel,points))
result_enables_condition(increase(bombsPerLevel),gt(bombsPerLevel,bombsPerLevel))
result_enables_condition(increase(bombsPerLevel),gt(bombsPerLevel,bombsLeft))
result_enables_condition(increase(bombsPerLevel),gt(bombsPerLevel,lives))
result_enables_condition(increase(bombsPerLevel),gt(bombsPerLevel,paused))
result_enables_condition(increase(bombsPerLevel),gt(bombsPerLevel,duration))
result_enables_condition(increase(bombsPerLevel),gt(bombsPerLevel,direction))
result_enables_condition(increase(bombsPerLevel),gt(bombsPerLevel,timeTilNextBomb))
result_enables_condition(increase(bombsLeft),gt(bombsLeft,mid))
result_enables_condition(increase(bombsLeft),gt(bombsLeft,high))
result_enables_condition(increase(bombsLeft),gt(bombsLeft,low))
result_enables_condition(increase(bombsLeft),gt(bombsLeft,points))
result_enables_condition(increase(bombsLeft),gt(bombsLeft,bombsPerLevel))
result_enables_condition(increase(bombsLeft),gt(bombsLeft,bombsLeft))
result_enables_condition(increase(bombsLeft),gt(bombsLeft,lives))
result_enables_condition(increase(bombsLeft),gt(bombsLeft,paused))
result_enables_condition(increase(bombsLeft),gt(bombsLeft,duration))
result_enables_condition(increase(bombsLeft),gt(bombsLeft,direction))
result_enables_condition(increase(bombsLeft),gt(bombsLeft,timeTilNextBomb))
result_enables_condition(increase(lives),gt(lives,mid))
result_enables_condition(increase(lives),gt(lives,high))
result_enables_condition(increase(lives),gt(lives,low))
result_enables_condition(increase(lives),gt(lives,points))
result_enables_condition(increase(lives),gt(lives,bombsPerLevel))
result_enables_condition(increase(lives),gt(lives,bombsLeft))
result_enables_condition(increase(lives),gt(lives,lives))
result_enables_condition(increase(lives),gt(lives,paused))
result_enables_condition(increase(lives),gt(lives,duration))
result_enables_condition(increase(lives),gt(lives,direction))
result_enables_condition(increase(lives),gt(lives,timeTilNextBomb))
result_enables_condition(increase(paused),gt(paused,mid))
result_enables_condition(increase(paused),gt(paused,high))
result_enables_condition(increase(paused),gt(paused,low))
result_enables_condition(increase(paused),gt(paused,points))
result_enables_condition(increase(paused),gt(paused,bombsPerLevel))
result_enables_condition(increase(paused),gt(paused,bombsLeft))
result_enables_condition(increase(paused),gt(paused,lives))
result_enables_condition(increase(paused),gt(paused,paused))
result_enables_condition(increase(paused),gt(paused,duration))
result_enables_condition(increase(paused),gt(paused,direction))
result_enables_condition(increase(paused),gt(paused,timeTilNextBomb))
result_enables_condition(increase(points),ge(points,mid))
result_enables_condition(increase(points),ge(points,high))
result_enables_condition(increase(points),ge(points,low))
result_enables_condition(increase(points),ge(points,points))
result_enables_condition(increase(points),ge(points,bombsPerLevel))
result_enables_condition(increase(points),ge(points,bombsLeft))
result_enables_condition(increase(points),ge(points,lives))
result_enables_condition(increase(points),ge(points,paused))
result_enables_condition(increase(points),ge(points,duration))
result_enables_condition(increase(points),ge(points,direction))
result_enables_condition(increase(points),ge(points,timeTilNextBomb))
result_enables_condition(increase(bombsPerLevel),ge(bombsPerLevel,mid))
result_enables_condition(increase(bombsPerLevel),ge(bombsPerLevel,high))
result_enables_condition(increase(bombsPerLevel),ge(bombsPerLevel,low))
result_enables_condition(increase(bombsPerLevel),ge(bombsPerLevel,points))
result_enables_condition(increase(bombsPerLevel),ge(bombsPerLevel,bombsPerLevel))
result_enables_condition(increase(bombsPerLevel),ge(bombsPerLevel,bombsLeft))
result_enables_condition(increase(bombsPerLevel),ge(bombsPerLevel,lives))
result_enables_condition(increase(bombsPerLevel),ge(bombsPerLevel,paused))
result_enables_condition(increase(bombsPerLevel),ge(bombsPerLevel,duration))
result_enables_condition(increase(bombsPerLevel),ge(bombsPerLevel,direction))
result_enables_condition(increase(bombsPerLevel),ge(bombsPerLevel,timeTilNextBomb))
result_enables_condition(increase(bombsLeft),ge(bombsLeft,mid))
result_enables_condition(increase(bombsLeft),ge(bombsLeft,high))
result_enables_condition(increase(bombsLeft),ge(bombsLeft,low))
result_enables_condition(increase(bombsLeft),ge(bombsLeft,points))
result_enables_condition(increase(bombsLeft),ge(bombsLeft,bombsPerLevel))
result_enables_condition(increase(bombsLeft),ge(bombsLeft,bombsLeft))
result_enables_condition(increase(bombsLeft),ge(bombsLeft,lives))
result_enables_condition(increase(bombsLeft),ge(bombsLeft,paused))
result_enables_condition(increase(bombsLeft),ge(bombsLeft,duration))
result_enables_condition(increase(bombsLeft),ge(bombsLeft,direction))
result_enables_condition(increase(bombsLeft),ge(bombsLeft,timeTilNextBomb))
result_enables_condition(increase(lives),ge(lives,mid))
result_enables_condition(increase(lives),ge(lives,high))
result_enables_condition(increase(lives),ge(lives,low))
result_enables_condition(increase(lives),ge(lives,points))
result_enables_condition(increase(lives),ge(lives,bombsPerLevel))
result_enables_condition(increase(lives),ge(lives,bombsLeft))
result_enables_condition(increase(lives),ge(lives,lives))
result_enables_condition(increase(lives),ge(lives,paused))
result_enables_condition(increase(lives),ge(lives,duration))
result_enables_condition(increase(lives),ge(lives,direction))
result_enables_condition(increase(lives),ge(lives,timeTilNextBomb))
result_enables_condition(increase(paused),ge(paused,mid))
result_enables_condition(increase(paused),ge(paused,high))
result_enables_condition(increase(paused),ge(paused,low))
result_enables_condition(increase(paused),ge(paused,points))
result_enables_condition(increase(paused),ge(paused,bombsPerLevel))
result_enables_condition(increase(paused),ge(paused,bombsLeft))
result_enables_condition(increase(paused),ge(paused,lives))
result_enables_condition(increase(paused),ge(paused,paused))
result_enables_condition(increase(paused),ge(paused,duration))
result_enables_condition(increase(paused),ge(paused,direction))
result_enables_condition(increase(paused),ge(paused,timeTilNextBomb))
result_enables_condition(decrease(points),lt(points,mid))
result_enables_condition(decrease(points),lt(points,high))
result_enables_condition(decrease(points),lt(points,low))
result_enables_condition(decrease(points),lt(points,points))
result_enables_condition(decrease(points),lt(points,bombsPerLevel))
result_enables_condition(decrease(points),lt(points,bombsLeft))
result_enables_condition(decrease(points),lt(points,lives))
result_enables_condition(decrease(points),lt(points,paused))
result_enables_condition(decrease(points),lt(points,duration))
result_enables_condition(decrease(points),lt(points,direction))
result_enables_condition(decrease(points),lt(points,timeTilNextBomb))
result_enables_condition(decrease(bombsPerLevel),lt(bombsPerLevel,mid))
result_enables_condition(decrease(bombsPerLevel),lt(bombsPerLevel,high))
result_enables_condition(decrease(bombsPerLevel),lt(bombsPerLevel,low))
result_enables_condition(decrease(bombsPerLevel),lt(bombsPerLevel,points))
result_enables_condition(decrease(bombsPerLevel),lt(bombsPerLevel,bombsPerLevel))
result_enables_condition(decrease(bombsPerLevel),lt(bombsPerLevel,bombsLeft))
result_enables_condition(decrease(bombsPerLevel),lt(bombsPerLevel,lives))
result_enables_condition(decrease(bombsPerLevel),lt(bombsPerLevel,paused))
result_enables_condition(decrease(bombsPerLevel),lt(bombsPerLevel,duration))
result_enables_condition(decrease(bombsPerLevel),lt(bombsPerLevel,direction))
result_enables_condition(decrease(bombsPerLevel),lt(bombsPerLevel,timeTilNextBomb))
result_enables_condition(decrease(bombsLeft),lt(bombsLeft,mid))
result_enables_condition(decrease(bombsLeft),lt(bombsLeft,high))
result_enables_condition(decrease(bombsLeft),lt(bombsLeft,low))
result_enables_condition(decrease(bombsLeft),lt(bombsLeft,points))
result_enables_condition(decrease(bombsLeft),lt(bombsLeft,bombsPerLevel))
result_enables_condition(decrease(bombsLeft),lt(bombsLeft,bombsLeft))
result_enables_condition(decrease(bombsLeft),lt(bombsLeft,lives))
result_enables_condition(decrease(bombsLeft),lt(bombsLeft,paused))
result_enables_condition(decrease(bombsLeft),lt(bombsLeft,duration))
result_enables_condition(decrease(bombsLeft),lt(bombsLeft,direction))
result_enables_condition(decrease(bombsLeft),lt(bombsLeft,timeTilNextBomb))
result_enables_condition(decrease(lives),lt(lives,mid))
result_enables_condition(decrease(lives),lt(lives,high))
result_enables_condition(decrease(lives),lt(lives,low))
result_enables_condition(decrease(lives),lt(lives,points))
result_enables_condition(decrease(lives),lt(lives,bombsPerLevel))
result_enables_condition(decrease(lives),lt(lives,bombsLeft))
result_enables_condition(decrease(lives),lt(lives,lives))
result_enables_condition(decrease(lives),lt(lives,paused))
result_enables_condition(decrease(lives),lt(lives,duration))
result_enables_condition(decrease(lives),lt(lives,direction))
result_enables_condition(decrease(lives),lt(lives,timeTilNextBomb))
result_enables_condition(decrease(paused),lt(paused,mid))
result_enables_condition(decrease(paused),lt(paused,high))
result_enables_condition(decrease(paused),lt(paused,low))
result_enables_condition(decrease(paused),lt(paused,points))
result_enables_condition(decrease(paused),lt(paused,bombsPerLevel))
result_enables_condition(decrease(paused),lt(paused,bombsLeft))
result_enables_condition(decrease(paused),lt(paused,lives))
result_enables_condition(decrease(paused),lt(paused,paused))
result_enables_condition(decrease(paused),lt(paused,duration))
result_enables_condition(decrease(paused),lt(paused,direction))
result_enables_condition(decrease(paused),lt(paused,timeTilNextBomb))
result_enables_condition(decrease(points),le(points,mid))
result_enables_condition(decrease(points),le(points,high))
result_enables_condition(decrease(points),le(points,low))
result_enables_condition(decrease(points),le(points,points))
result_enables_condition(decrease(points),le(points,bombsPerLevel))
result_enables_condition(decrease(points),le(points,bombsLeft))
result_enables_condition(decrease(points),le(points,lives))
result_enables_condition(decrease(points),le(points,paused))
result_enables_condition(decrease(points),le(points,duration))
result_enables_condition(decrease(points),le(points,direction))
result_enables_condition(decrease(points),le(points,timeTilNextBomb))
result_enables_condition(decrease(bombsPerLevel),le(bombsPerLevel,mid))
result_enables_condition(decrease(bombsPerLevel),le(bombsPerLevel,high))
result_enables_condition(decrease(bombsPerLevel),le(bombsPerLevel,low))
result_enables_condition(decrease(bombsPerLevel),le(bombsPerLevel,points))
result_enables_condition(decrease(bombsPerLevel),le(bombsPerLevel,bombsPerLevel))
result_enables_condition(decrease(bombsPerLevel),le(bombsPerLevel,bombsLeft))
result_enables_condition(decrease(bombsPerLevel),le(bombsPerLevel,lives))
result_enables_condition(decrease(bombsPerLevel),le(bombsPerLevel,paused))
result_enables_condition(decrease(bombsPerLevel),le(bombsPerLevel,duration))
result_enables_condition(decrease(bombsPerLevel),le(bombsPerLevel,direction))
result_enables_condition(decrease(bombsPerLevel),le(bombsPerLevel,timeTilNextBomb))
result_enables_condition(decrease(bombsLeft),le(bombsLeft,mid))
result_enables_condition(decrease(bombsLeft),le(bombsLeft,high))
result_enables_condition(decrease(bombsLeft),le(bombsLeft,low))
result_enables_condition(decrease(bombsLeft),le(bombsLeft,points))
result_enables_condition(decrease(bombsLeft),le(bombsLeft,bombsPerLevel))
result_enables_condition(decrease(bombsLeft),le(bombsLeft,bombsLeft))
result_enables_condition(decrease(bombsLeft),le(bombsLeft,lives))
result_enables_condition(decrease(bombsLeft),le(bombsLeft,paused))
result_enables_condition(decrease(bombsLeft),le(bombsLeft,duration))
result_enables_condition(decrease(bombsLeft),le(bombsLeft,direction))
result_enables_condition(decrease(bombsLeft),le(bombsLeft,timeTilNextBomb))
result_enables_condition(decrease(lives),le(lives,mid))
result_enables_condition(decrease(lives),le(lives,high))
result_enables_condition(decrease(lives),le(lives,low))
result_enables_condition(decrease(lives),le(lives,points))
result_enables_condition(decrease(lives),le(lives,bombsPerLevel))
result_enables_condition(decrease(lives),le(lives,bombsLeft))
result_enables_condition(decrease(lives),le(lives,lives))
result_enables_condition(decrease(lives),le(lives,paused))
result_enables_condition(decrease(lives),le(lives,duration))
result_enables_condition(decrease(lives),le(lives,direction))
result_enables_condition(decrease(lives),le(lives,timeTilNextBomb))
result_enables_condition(decrease(paused),le(paused,mid))
result_enables_condition(decrease(paused),le(paused,high))
result_enables_condition(decrease(paused),le(paused,low))
result_enables_condition(decrease(paused),le(paused,points))
result_enables_condition(decrease(paused),le(paused,bombsPerLevel))
result_enables_condition(decrease(paused),le(paused,bombsLeft))
result_enables_condition(decrease(paused),le(paused,lives))
result_enables_condition(decrease(paused),le(paused,paused))
result_enables_condition(decrease(paused),le(paused,duration))
result_enables_condition(decrease(paused),le(paused,direction))
result_enables_condition(decrease(paused),le(paused,timeTilNextBomb))
outcome_enables(change_direction(bomber),set(direction,random_choice(east,west)))
outcome_enables(throw_bomb(bomber),add(bomb))
outcome_enables(throw_bomb(bomber),decrease(bombsLeft,low))
outcome_enables(tick,moves(bomber,direction))
outcome_enables(tick,moves(bomb,south))
outcome_enables(defuse,delete(bomb))
outcome_enables(defuse,increase(score,low))
outcome_enables(move_right,moves(basket,east,low))
outcome_enables(move_left,moves(basket,west,low))
outcome_enables(lose_life,decrease(lives,low))
outcome_enables(lose_life,set(paused,true))
outcome_enables(lose,mode_change(game_loss)) goal(prevent(lose))
outcomeAffects(score,defuse,positive) goal(maintain(lives)) good(lives)
outcomeAffects(bombsLeft,throw_bomb(bomber),negative)
outcomeAffects(lives,lose_life,negative) outcome(change_direction(bomber))
outcome(throw_bomb(bomber)) outcome(tick) outcome(defuse)
outcome(move_right) outcome(move_left) outcome(lose_life) outcome(lose)
onlyOnePrecondition(tick) onlyOnePrecondition(defuse)
onlyOnePrecondition(move_right) onlyOnePrecondition(move_left)
onlyOnePrecondition(lose_life) onlyOnePrecondition(lose)
entityInfluences(bomb,defuse) entityInfluences(bomb,lose_life)
entityInfluences(basket,defuse) entityInfluences(screen_bottom,lose_life)
entityDetermines(bomb,defuse) entityDetermines(bomb,lose_life)
entityDetermines(basket,defuse) entityDetermines(screen_bottom,lose_life)
badResult(decrease(lives,low)) outcomeUnfavorable(lose)
outcomeUnfavorable(lose_life) harmful(bomb) harmful(screen_bottom)
outcomeFavorable(defuse) moreThanOnePrecondition(change_direction(bomber))
moreThanOnePrecondition(throw_bomb(bomber))
conditionEnables(eq(paused,false),change_direction(bomber))
conditionEnables(timerElapsed(bomber,change_direction),change_direction(bomber))
conditionEnables(eq(paused,false),throw_bomb(bomber))
conditionEnables(timerElapsed(bomber,throw_bomb),throw_bomb(bomber))
conditionEnables(eq(paused,false),tick)
conditionEnables(overlaps(bomb,basket),defuse)
conditionEnables(control_event(right_arrow,held),move_right)
conditionEnables(control_event(left_arrow,held),move_left)
conditionEnables(overlaps(bomb,screen_bottom),lose_life)
conditionEnables(le(lives,0),lose) goal(relates(lose))
restrictedEntity(bomber) restrictedEntity(bomb)
restrictedEntity(screen_top) restrictedEntity(screen_left)
restrictedEntity(screen_bottom) restrictedEntity(screen_right)
unrestrictedCondition(control_event(right_arrow,held))
unrestrictedCondition(control_event(left_arrow,held))
monotonicallyDecreases(bombsLeft) monotonicallyDecreases(lives)
monotonicallyIncreases(score) restricted(change_direction(bomber))
restricted(throw_bomb(bomber)) restricted(tick) restricted(defuse)
unrestricted(move_right) unrestricted(move_left) restricted(lose_life)
restricted(lose) easy(move_right) easy(move_left) constant(points)
constant(bombsPerLevel) constant(paused) unrestrictedEntity(basket)
amount(low) limited(bombsLeft) limited(lives)
entityInfluencesOther(basket,bomb)

playerCreatesCondition(control_event(right_arrow,held))
playerCreatesCondition(control_event(left_arrow,held))

playerInfluences(move_right) playerInfluences(move_left)
playerInfluences(defuse) systemInfluences(change_direction(bomber))
systemInfluences(throw_bomb(bomber)) systemInfluences(tick)
systemInfluences(defuse) systemInfluences(lose_life) systemInfluences(lose)

playerDetermines(move_right) playerDetermines(move_left)

playerWillAttemptToCreate(overlaps(bomb,basket),defuse)
playerWillAttemptToAvoid(overlaps(bomb,screen_bottom),lose_life)

antagonist(bomber) SATISFIABLE

Models       : 1     
Calls        : 1
Time         : 0.057s (Solving: 0.00s 1st Model: 0.00s Unsat: 0.00s)
CPU Time     : 0.050s
